Using license file /home/anup/gurobi.lic
Academic license - for non-commercial use only
Changed value of parameter NonConvex to 2
   Prev: -1  Min: -1  Max: 2  Default: -1
Parameter NonConvex unchanged
   Value: 2  Min: -1  Max: 2  Default: -1
Model update took: 4.696846008300781e-05 seconds
Warning: constraint name "accuracy_(0, sk_0)[0]" has a space
Gurobi Optimizer version 9.0.0 build v9.0.0rc2 (linux64)
Optimize a model with 100 rows, 114 columns and 275 nonzeros
Model fingerprint: 0x9fda62b2
Model has 6 quadratic constraints
Model has 7 general constraints
Variable types: 110 continuous, 4 integer (0 binary)
Coefficient statistics:
  Matrix range     [1e-04, 1e+01]
  QMatrix range    [1e+00, 1e+00]
  QLMatrix range   [1e+00, 1e+00]
  Objective range  [1e+00, 1e+00]
  Bounds range     [1e+00, 3e+04]
  RHS range        [5e-01, 5e+01]

---------------------------------------------------------------------------
Multi-objectives: starting optimization with 2 objectives ... 
---------------------------------------------------------------------------

Multi-objectives: applying initial presolve ...
---------------------------------------------------------------------------

Presolve added 0 rows and 20 columns
Presolve removed 10 rows and 0 columns
Presolve time: 0.00s
Presolved: 114 rows and 135 columns
---------------------------------------------------------------------------

Multi-objectives: optimize objective 1 (cpu_load) ...
---------------------------------------------------------------------------

Presolve removed 50 rows and 57 columns
Presolve time: 0.00s
Presolved: 88 rows, 79 columns, 250 nonzeros
Presolved model has 8 SOS constraint(s)
Presolved model has 6 bilinear constraint(s)
Variable types: 56 continuous, 23 integer (19 binary)

Root relaxation: objective 0.000000e+00, 23 iterations, 0.00 seconds

    Nodes    |    Current Node    |     Objective Bounds      |     Work
 Expl Unexpl |  Obj  Depth IntInf | Incumbent    BestBd   Gap | It/Node Time

     0     0    0.00000    0    4          -    0.00000      -     -    0s
     0     0    0.00000    0    4          -    0.00000      -     -    0s
     0     0    0.00000    0    4          -    0.00000      -     -    0s
     0     0    0.00000    0    4          -    0.00000      -     -    0s
     0     0    0.00000    0    4          -    0.00000      -     -    0s
*    0     0               0       0.0000000    0.00000  0.00%     -    0s

Cutting planes:
  MIR: 6
  RLT: 2

Explored 1 nodes (33 simplex iterations) in 0.01 seconds
Thread count was 8 (of 8 available processors)

Solution count 1: 0 

Optimal solution found (tolerance 1.00e-04)
Best objective 0.000000000000e+00, best bound 0.000000000000e+00, gap 0.0000%
---------------------------------------------------------------------------

Multi-objectives: optimize objective 2 (p4_load) ...
---------------------------------------------------------------------------


Loaded user MIP start with objective 25.6719

Presolve removed 72 rows and 84 columns
Presolve time: 0.00s
Presolved: 67 rows, 52 columns, 172 nonzeros
Presolved model has 6 SOS constraint(s)
Presolved model has 6 bilinear constraint(s)
Variable types: 40 continuous, 12 integer (8 binary)

Root relaxation: objective 2.567186e+01, 13 iterations, 0.00 seconds

    Nodes    |    Current Node    |     Objective Bounds      |     Work
 Expl Unexpl |  Obj  Depth IntInf | Incumbent    BestBd   Gap | It/Node Time

     0     0   25.67186    0    4   25.67188   25.67186  0.00%     -    0s

Explored 0 nodes (13 simplex iterations) in 0.01 seconds
Thread count was 8 (of 8 available processors)

Solution count 1: 25.6719 

Optimal solution found (tolerance 1.00e-04)
Best objective 2.567187500000e+01, best bound 2.567186299880e+01, gap 0.0000%

---------------------------------------------------------------------------
Multi-objectives: solved in 0.01 seconds, solution count 1

Model optimize took: 0.009966611862182617 seconds

Solution quality statistics for model netmon :
  Maximum violation:
    Bound       : 0.00000000e+00
    Constraint  : 1.42108547e-14
    Integrality : 6.66133815e-16 (cores_dpdk_cpu_1)


DEBUG -----------------------

Objective: 0.0
frac[0,0] 0
frac[0,1] 0
frac[0,2] 0
frac[0,3] 0
frac[0,4] 0
frac[0,5] 0
frac[0,6] 0
frac[0,7] 0
frac[0,8] 0
frac[0,9] 0
frac[1,0] 0
frac[1,1] 0
frac[1,2] 0
frac[1,3] 0
frac[1,4] 0
frac[1,5] 0
frac[1,6] 0
frac[1,7] 0
frac[1,8] 0
frac[1,9] 0
frac[2,0] 1
frac[2,1] 1
frac[2,2] 1
frac[2,3] 1
frac[2,4] 1
frac[2,5] 1
frac[2,6] 1
frac[2,7] 1
frac[2,8] 1
frac[2,9] 1
frac[3,0] 0
frac[3,1] 0
frac[3,2] 0
frac[3,3] 0.8
frac[3,4] 0.8
frac[3,5] 0.8
frac[3,6] 0.5
frac[3,7] 0.5
frac[3,8] 0.5
frac[3,9] 0.5
mem[0,0] 0
mem[0,1] 0
mem[0,2] 0
mem[0,3] 0
mem[0,4] 0
mem[0,5] 0
mem[0,6] 0
mem[0,7] 0
mem[0,8] 0
mem[0,9] 0
mem[1,0] 0
mem[1,1] 0
mem[1,2] 0
mem[1,3] 0
mem[1,4] 0
mem[1,5] 0
mem[1,6] 0
mem[1,7] 0
mem[1,8] 0
mem[1,9] 0
mem[2,0] 0.0351562
mem[2,1] 0.0351562
mem[2,2] 0.0351562
mem[2,3] 8.49609
mem[2,4] 8.49609
mem[2,5] 8.49609
mem[2,6] 0.0195312
mem[2,7] 0.0195312
mem[2,8] 0.0195312
mem[2,9] 0.0195312
mem[3,0] 0
mem[3,1] 0
mem[3,2] 5.24219
mem[3,3] 6.79688
mem[3,4] 6.79688
mem[3,5] 6.79688
mem[3,6] 0.00976562
mem[3,7] 0.00976562
mem[3,8] 0.00976562
mem[3,9] 0.00976562
rows_tot_cpu_1 0
mem_tot_cpu_1 0
m_access_time_cpu_1 0
ns_single_cpu_1 0
pdt_m_rows_cpu_1 0
cores_sketch_cpu_1 -0
cores_dpdk_cpu_1 1
ns_sketch_cpu_1 0
ns_dpdk_cpu_1 28.5714
ns_cpu_1 28.5714
pdt_nsk_c_cpu_1 0
pdt_nsc_dpdk_cpu_1 28.5714
rows_tot_cpu_2 0
mem_tot_cpu_2 0
m_access_time_cpu_2 0
ns_single_cpu_2 0
pdt_m_rows_cpu_2 0
cores_sketch_cpu_2 -0
cores_dpdk_cpu_2 1
ns_sketch_cpu_2 0
ns_dpdk_cpu_2 28.5714
ns_cpu_2 28.5714
pdt_nsk_c_cpu_2 0
pdt_nsc_dpdk_cpu_2 28.5714
rows_tot_p4_1 10
mem_tot_p4_1 25.6719
ns_p4_1 6.75676
rows_tot_p4_2 4.4
mem_tot_p4_2 25.6719
ns_p4_2 6.75676
ns 28.5714
res_overall 24.6697
max_mem_p4 25.6719
max_mem_cpu 0
-----------------------------

Throughput: 35.0 Mpps, ns per packet: 28.571428571428573
Resources: 24.669661458333344

Sketch (0) (cm: eps0: 0.3125, del0: 0.05, min_mem: 0.03515625)
Row: 1
0.000    0.000    1.000    0.000    
Total frac: 1.000
Row: 2
0.000    0.000    1.000    0.000    
Total frac: 1.000
Row: 3
0.000    0.000    1.000    0.000    
Total frac: 1.000

Sketch (1) (cm: eps0: 0.00125, del0: 0.05, min_mem: 8.49609375)
Row: 1
0.000    0.000    1.000    0.800    
Total frac: 1.800
Row: 2
0.000    0.000    1.000    0.800    
Total frac: 1.800
Row: 3
0.000    0.000    1.000    0.800    
Total frac: 1.800

Sketch (2) (cm: eps0: 0.625, del0: 0.025, min_mem: 0.01953125)
Row: 1
0.000    0.000    1.000    0.500    
Total frac: 1.500
Row: 2
0.000    0.000    1.000    0.500    
Total frac: 1.500
Row: 3
0.000    0.000    1.000    0.500    
Total frac: 1.500
Row: 4
0.000    0.000    1.000    0.500    
Total frac: 1.500
Device (0) cpu_1:
cores_sketch: -0.0, cores_dpdk: 1.0000000000000007
Rows total: 0.0
Mem total: 0.0
Throughput: 35.0

Device (1) cpu_2:
cores_sketch: -0.0, cores_dpdk: 1.0000000000000004
Rows total: 0.0
Mem total: 0.0
Throughput: 35.0

Device (2) p4_1:

Rows total: 10.0
Mem total: 25.671875
Throughput: 148.0

Device (3) p4_2:

Rows total: 4.4
Mem total: 25.671875
Throughput: 148.0

frac[0,0]
frac[0,1]
frac[0,2]
frac[0,3]
frac[0,4]
frac[0,5]
frac[0,6]
frac[0,7]
frac[0,8]
frac[0,9]
frac[1,0]
frac[1,1]
frac[1,2]
frac[1,3]
frac[1,4]
frac[1,5]
frac[1,6]
frac[1,7]
frac[1,8]
frac[1,9]
frac[2,0]
frac[2,1]
frac[2,2]
frac[2,3]
frac[2,4]
frac[2,5]
frac[2,6]
frac[2,7]
frac[2,8]
frac[2,9]
frac[3,0]
frac[3,1]
frac[3,2]
frac[3,3]
frac[3,4]
frac[3,5]
frac[3,6]
frac[3,7]
frac[3,8]
frac[3,9]
mem[0,0]
mem[0,1]
mem[0,2]
mem[0,3]
mem[0,4]
mem[0,5]
mem[0,6]
mem[0,7]
mem[0,8]
mem[0,9]
mem[1,0]
mem[1,1]
mem[1,2]
mem[1,3]
mem[1,4]
mem[1,5]
mem[1,6]
mem[1,7]
mem[1,8]
mem[1,9]
mem[2,0]
mem[2,1]
mem[2,2]
mem[2,3]
mem[2,4]
mem[2,5]
mem[2,6]
mem[2,7]
mem[2,8]
mem[2,9]
mem[3,0]
mem[3,1]
mem[3,2]
mem[3,3]
mem[3,4]
mem[3,5]
mem[3,6]
mem[3,7]
mem[3,8]
mem[3,9]
mem_tot_cpu_1
mem_tot_cpu_2
mem_tot_p4_1
mem_tot_p4_2
Gurobi Optimizer version 9.0.0 build v9.0.0rc2 (linux64)
Optimize a model with 184 rows, 114 columns and 359 nonzeros
Model fingerprint: 0xd2d7bf99
Model has 6 quadratic constraints
Model has 7 general constraints
Variable types: 110 continuous, 4 integer (0 binary)
Coefficient statistics:
  Matrix range     [1e-04, 1e+01]
  QMatrix range    [1e+00, 1e+00]
  QLMatrix range   [1e+00, 1e+00]
  Objective range  [1e+00, 1e+00]
  Bounds range     [1e+00, 3e+04]
  RHS range        [1e-02, 5e+01]

---------------------------------------------------------------------------
Multi-objectives: starting optimization with 1 objectives ... 
---------------------------------------------------------------------------
---------------------------------------------------------------------------

Multi-objectives: optimize objective 1 (ns) ...
---------------------------------------------------------------------------

Optimize a model with 184 rows, 114 columns and 359 nonzeros
Model has 6 quadratic constraints
Model has 7 general constraints
Variable types: 110 continuous, 4 integer (0 binary)
Coefficient statistics:
  Matrix range     [1e-04, 1e+01]
  QMatrix range    [1e+00, 1e+00]
  QLMatrix range   [1e+00, 1e+00]
  Objective range  [1e+00, 1e+00]
  Bounds range     [1e+00, 3e+04]
  RHS range        [1e-02, 5e+01]
Presolve removed 170 rows and 91 columns
Presolve time: 0.00s
Presolved: 30 rows, 24 columns, 72 nonzeros
Presolved model has 2 SOS constraint(s)
Presolved model has 4 bilinear constraint(s)
Variable types: 14 continuous, 10 integer (6 binary)

Root relaxation: objective 7.722008e+00, 13 iterations, 0.00 seconds

    Nodes    |    Current Node    |     Objective Bounds      |     Work
 Expl Unexpl |  Obj  Depth IntInf | Incumbent    BestBd   Gap | It/Node Time

     0     0    7.72201    0    4          -    7.72201      -     -    0s
*    0     0               0      10.2040816   10.20408  0.00%     -    0s

Cutting planes:
  MIR: 4
  RLT: 2

Explored 1 nodes (16 simplex iterations) in 0.00 seconds
Thread count was 8 (of 8 available processors)

Solution count 1: 10.2041 

Optimal solution found (tolerance 1.00e-04)
Best objective 1.020408163265e+01, best bound 1.020408163265e+01, gap 0.0000%

---------------------------------------------------------------------------
Multi-objectives: solved in 0.00 seconds, solution count 1




Solution quality statistics for model netmon :
  Maximum violation:
    Bound       : 2.13162821e-14 (cores_dpdk_cpu_2)
    Constraint  : 5.68434189e-14
    Integrality : 2.13162821e-14 (cores_dpdk_cpu_2)


DEBUG -----------------------

Objective: 10.204081632653061
frac[0,0] 0
frac[0,1] 0
frac[0,2] 0
frac[0,3] 0
frac[0,4] 0
frac[0,5] 0
frac[0,6] 0
frac[0,7] 0
frac[0,8] 0
frac[0,9] 0
frac[1,0] 0
frac[1,1] 0
frac[1,2] 0
frac[1,3] 0
frac[1,4] 0
frac[1,5] 0
frac[1,6] 0
frac[1,7] 0
frac[1,8] 0
frac[1,9] 0
frac[2,0] 1
frac[2,1] 1
frac[2,2] 1
frac[2,3] 1
frac[2,4] 1
frac[2,5] 1
frac[2,6] 1
frac[2,7] 1
frac[2,8] 1
frac[2,9] 1
frac[3,0] 0
frac[3,1] 0
frac[3,2] 0
frac[3,3] 0.8
frac[3,4] 0.8
frac[3,5] 0.8
frac[3,6] 0.5
frac[3,7] 0.5
frac[3,8] 0.5
frac[3,9] 0.5
mem[0,0] 0
mem[0,1] 0
mem[0,2] 0
mem[0,3] 0
mem[0,4] 0
mem[0,5] 0
mem[0,6] 0
mem[0,7] 0
mem[0,8] 0
mem[0,9] 0
mem[1,0] 0
mem[1,1] 0
mem[1,2] 0
mem[1,3] 0
mem[1,4] 0
mem[1,5] 0
mem[1,6] 0
mem[1,7] 0
mem[1,8] 0
mem[1,9] 0
mem[2,0] 0.0351562
mem[2,1] 0.0351562
mem[2,2] 0.0351562
mem[2,3] 8.49609
mem[2,4] 8.49609
mem[2,5] 8.49609
mem[2,6] 0.0195312
mem[2,7] 0.0195312
mem[2,8] 0.0195312
mem[2,9] 0.0195312
mem[3,0] 0
mem[3,1] 0
mem[3,2] 5.24219
mem[3,3] 6.79688
mem[3,4] 6.79688
mem[3,5] 6.79688
mem[3,6] 0.00976562
mem[3,7] 0.00976562
mem[3,8] 0.00976562
mem[3,9] 0.00976562
rows_tot_cpu_1 0
mem_tot_cpu_1 0
m_access_time_cpu_1 0
ns_single_cpu_1 0
pdt_m_rows_cpu_1 0
cores_sketch_cpu_1 -0
cores_dpdk_cpu_1 7
ns_sketch_cpu_1 0
ns_dpdk_cpu_1 10.2041
ns_cpu_1 10.2041
pdt_nsk_c_cpu_1 0
pdt_nsc_dpdk_cpu_1 71.4286
rows_tot_cpu_2 0
mem_tot_cpu_2 0
m_access_time_cpu_2 0
ns_single_cpu_2 0
pdt_m_rows_cpu_2 0
cores_sketch_cpu_2 -0
cores_dpdk_cpu_2 7
ns_sketch_cpu_2 0
ns_dpdk_cpu_2 10.2041
ns_cpu_2 10.2041
pdt_nsk_c_cpu_2 0
pdt_nsc_dpdk_cpu_2 71.4286
rows_tot_p4_1 10
mem_tot_p4_1 25.6719
ns_p4_1 6.75676
rows_tot_p4_2 4.4
mem_tot_p4_2 25.6719
ns_p4_2 6.75676
ns 10.2041
res_overall 144.67
max_mem_p4 25.6719
max_mem_cpu 0
-----------------------------

Throughput: 98.0 Mpps, ns per packet: 10.204081632653061
Resources: 144.66966145833354

Sketch (0) (cm: eps0: 0.3125, del0: 0.05, min_mem: 0.03515625)
Row: 1
0.000    0.000    1.000    0.000    
Total frac: 1.000
Row: 2
0.000    0.000    1.000    0.000    
Total frac: 1.000
Row: 3
0.000    0.000    1.000    0.000    
Total frac: 1.000

Sketch (1) (cm: eps0: 0.00125, del0: 0.05, min_mem: 8.49609375)
Row: 1
0.000    0.000    1.000    0.800    
Total frac: 1.800
Row: 2
0.000    0.000    1.000    0.800    
Total frac: 1.800
Row: 3
0.000    0.000    1.000    0.800    
Total frac: 1.800

Sketch (2) (cm: eps0: 0.625, del0: 0.025, min_mem: 0.01953125)
Row: 1
0.000    0.000    1.000    0.500    
Total frac: 1.500
Row: 2
0.000    0.000    1.000    0.500    
Total frac: 1.500
Row: 3
0.000    0.000    1.000    0.500    
Total frac: 1.500
Row: 4
0.000    0.000    1.000    0.500    
Total frac: 1.500
Device (0) cpu_1:
cores_sketch: -0.0, cores_dpdk: 7.0
Rows total: 0.0
Mem total: 0.0
Throughput: 98.0

Device (1) cpu_2:
cores_sketch: -0.0, cores_dpdk: 7.000000000000021
Rows total: 0.0
Mem total: 0.0
Throughput: 98.0

Device (2) p4_1:

Rows total: 10.0
Mem total: 25.671875
Throughput: 148.0

Device (3) p4_2:

Rows total: 4.4
Mem total: 25.671875
Throughput: 148.0

